# Solution for model photosynthesis_srl_ilp
# Objective value = 2.2339186018205325e+01
Z_112_0_0 0
Z_112_0_1 0
Z_112_0_2 1
Z_112_0_3 0
Z_112_0_4 0
Z_390_0_0 0
Z_390_0_1 0
Z_390_0_2 1
Z_390_0_3 0
Z_390_0_4 0
Z_390_2_0 0
Z_390_2_1 0
Z_390_2_2 0
Z_390_2_3 1
Z_390_2_4 0
Z_390_3_0 0
Z_390_3_1 0
Z_390_3_2 0
Z_390_3_3 0
Z_390_3_4 1
Z_265_0_0 0
Z_265_0_1 0
Z_265_0_2 0
Z_265_0_3 0
Z_265_0_4 1
Z_496_2_0 0
Z_496_2_1 0
Z_496_2_2 0
Z_496_2_3 0
Z_496_2_4 1
Z_496_1_0 0
Z_496_1_1 0
Z_496_1_2 0
Z_496_1_3 0
Z_496_1_4 1
Z_496_4_0 0
Z_496_4_1 0
Z_496_4_2 0
Z_496_4_3 0
Z_496_4_4 1
Z_496_3_0 0
Z_496_3_1 0
Z_496_3_2 0
Z_496_3_3 0
Z_496_3_4 1
Z_253_1_0 0
Z_253_1_1 0
Z_253_1_2 0
Z_253_1_3 0
Z_253_1_4 1
Z_253_2_0 0
Z_253_2_1 0
Z_253_2_2 0
Z_253_2_3 0
Z_253_2_4 1
Z_253_0_0 0
Z_253_0_1 0
Z_253_0_2 0
Z_253_0_3 0
Z_253_0_4 1
Z_165_0_0 0
Z_165_0_1 0
Z_165_0_2 0
Z_165_0_3 0
Z_165_0_4 1
Z_202_0_0 0
Z_202_0_1 0
Z_202_0_2 1
Z_202_0_3 0
Z_202_0_4 0
Z_401_0_0 0
Z_401_0_1 0
Z_401_0_2 1
Z_401_0_3 0
Z_401_0_4 0
Z_11_0_0 0
Z_11_0_1 1
Z_11_0_2 0
Z_11_0_3 0
Z_11_0_4 0
Z_474_0_0 0
Z_474_0_1 0
Z_474_0_2 1
Z_474_0_3 0
Z_474_0_4 0
Z_474_3_0 0
Z_474_3_1 0
Z_474_3_2 0
Z_474_3_3 0
Z_474_3_4 1
Z_474_2_0 0
Z_474_2_1 0
Z_474_2_2 0
Z_474_2_3 1
Z_474_2_4 0
Z_242_3_0 0
Z_242_3_1 0
Z_242_3_2 0
Z_242_3_3 0
Z_242_3_4 1
Z_242_4_0 0
Z_242_4_1 0
Z_242_4_2 0
Z_242_4_3 0
Z_242_4_4 1
Z_242_2_0 0
Z_242_2_1 0
Z_242_2_2 0
Z_242_2_3 0
Z_242_2_4 1
Z_242_1_0 0
Z_242_1_1 0
Z_242_1_2 0
Z_242_1_3 0
Z_242_1_4 1
Z_242_5_0 0
Z_242_5_1 0
Z_242_5_2 0
Z_242_5_3 0
Z_242_5_4 1
Z_121_0_0 0
Z_121_0_1 0
Z_121_0_2 1
Z_121_0_3 0
Z_121_0_4 0
Z_121_1_0 1
Z_121_1_1 0
Z_121_1_2 0
Z_121_1_3 0
Z_121_1_4 0
Z_555_0_0 0
Z_555_0_1 1
Z_555_0_2 0
Z_555_0_3 0
Z_555_0_4 0
